c 
c G(k,n,p) graph
c graph gen seed     : 4940
c number of vertices : 50
c max number of edges: 625
c number of classes  : 2
c edge density       : 0.200000
c edge probability   : 0.400000
c data structure     : sparse
c
c           Graph Stats
c number of vertices  : 50
c nonisolated vertices: 50
c number of edges     : 257
c edge density        : 0.209796
c max degree          : 17
c avg degree          : 10.28
c min degree          : 6
p col 50 257
e 1 44
e 1 39
e 1 38
e 1 37
e 1 36
e 1 30
e 1 28
e 1 10
e 1 8
e 1 5
e 2 39
e 2 38
e 2 31
e 2 30
e 2 28
e 2 21
e 2 15
e 2 8
e 2 5
e 3 44
e 3 42
e 3 39
e 3 38
e 3 36
e 3 31
e 3 30
e 3 26
e 3 22
e 3 15
e 3 10
e 3 8
e 4 46
e 4 38
e 4 36
e 4 31
e 4 21
e 4 11
e 4 10
e 5 49
e 5 47
e 5 35
e 5 27
e 5 24
e 5 23
e 5 20
e 5 18
e 5 17
e 5 9
e 5 7
e 6 48
e 6 46
e 6 41
e 6 38
e 6 36
e 6 31
e 6 15
e 6 13
e 6 11
e 6 10
e 7 44
e 7 39
e 7 28
e 7 26
e 7 15
e 7 13
e 8 47
e 8 45
e 8 43
e 8 34
e 8 27
e 8 25
e 8 24
e 8 19
e 8 17
e 9 42
e 9 39
e 9 38
e 9 21
e 9 13
e 9 12
e 9 11
e 10 49
e 10 47
e 10 43
e 10 29
e 10 20
e 10 19
e 10 16
e 11 49
e 11 43
e 11 40
e 11 34
e 11 25
e 11 24
e 11 23
e 11 16
e 11 14
e 12 50
e 12 49
e 12 43
e 12 32
e 12 24
e 12 20
e 12 19
e 12 16
e 13 43
e 13 35
e 13 29
e 13 25
e 13 18
e 13 14
e 14 48
e 14 42
e 14 38
e 14 33
e 14 30
e 15 43
e 15 40
e 15 34
e 15 23
e 15 20
e 16 39
e 16 38
e 16 37
e 16 26
e 16 22
e 16 21
e 17 44
e 17 41
e 17 39
e 17 37
e 17 30
e 18 42
e 18 41
e 18 39
e 18 36
e 18 33
e 18 31
e 18 22
e 19 46
e 19 41
e 19 38
e 19 37
e 19 36
e 19 31
e 19 22
e 20 41
e 20 39
e 20 38
e 20 36
e 20 30
e 20 28
e 21 50
e 21 49
e 21 45
e 21 43
e 21 40
e 21 32
e 21 27
e 21 25
e 21 24
e 21 23
e 22 47
e 22 45
e 22 43
e 22 35
e 22 29
e 22 27
e 22 25
e 22 24
e 23 48
e 23 44
e 23 41
e 23 37
e 23 36
e 23 31
e 23 30
e 24 39
e 24 38
e 24 37
e 24 36
e 24 33
e 25 48
e 25 44
e 25 42
e 25 39
e 25 28
e 25 26
e 26 50
e 26 47
e 26 45
e 26 43
e 26 32
e 27 48
e 27 46
e 27 44
e 27 41
e 27 33
e 27 31
e 28 50
e 28 47
e 28 40
e 28 34
e 29 48
e 29 46
e 29 39
e 29 36
e 29 31
e 29 30
e 30 45
e 30 40
e 30 35
e 30 34
e 31 43
e 31 34
e 31 32
e 32 39
e 32 38
e 32 37
e 32 36
e 33 45
e 33 40
e 34 48
e 34 42
e 34 38
e 34 36
e 35 48
e 35 46
e 35 44
e 35 41
e 36 50
e 36 45
e 36 43
e 37 49
e 37 47
e 37 40
e 38 50
e 38 47
e 38 43
e 38 40
e 39 45
e 40 44
e 41 49
e 41 45
e 41 43
e 42 50
e 42 49
e 42 45
e 42 43
e 43 48
e 43 46
e 43 44
e 44 50
e 44 49
e 44 47
e 45 46
e 48 49
